Minimize
	value: tt

Subject to
tt + 2000 s_1_1 > 0
tt - t_1_1 - 2000.000000 s_1_1 > -1989.791100
tt + 2000 s_2_1 > 0
tt - t_2_1 - 2000.000000 s_2_1 > -1997.976524
tt + 2000 s_1_2 > 0
tt - t_1_2 - 2000.000000 s_1_2 > -1980.446000
tt + 2000 s_2_2 > 0
tt - t_2_2 - 2000.000000 s_2_2 > -1996.935625
tt + 2000 s_1_3 > 0
tt - t_1_3 - 2000.000000 s_1_3 > -1923.820200
tt + 2000 s_2_3 > 0
tt - t_2_3 - 2000.000000 s_2_3 > -1985.298928
tt + 2000 s_1_4 > 0
tt - t_1_4 - 2000.000000 s_1_4 > -1954.795300
tt + 2000 s_2_4 > 0
tt - t_2_4 - 2000.000000 s_2_4 > -1991.586107
tt + 2000 s_1_5 > 0
tt - t_1_5 - 2048.000000 s_1_5 + 48.000000 s_1_4 > -1999.551333
tt + 2000 s_2_5 > 0
tt - t_2_5 - 2057.600000 s_2_5 + 57.600000 s_2_4 > -1999.043714
s_1_1 + s_2_1  = 1
s_1_2 + s_2_2  = 1
s_1_3 + s_2_3  = 1
s_1_4 + s_2_4  = 1
s_1_5 + s_2_5  = 1
t_1_1 - t_1_2 + 2000.000000 u_1_1_2 > 19.554000
t_1_2 - t_1_1 - 2000.000000 u_1_1_2 > -1989.791100
t_2_1 - t_2_2 + 2000.000000 u_2_1_2 > 3.064375
t_2_2 - t_2_1 - 2000.000000 u_2_1_2 > -1997.976524
t_1_1 - t_1_3 + 2000.000000 u_1_1_3 > 76.179800
t_1_3 - t_1_1 - 2000.000000 u_1_1_3 > -1989.791100
t_2_1 - t_2_3 + 2000.000000 u_2_1_3 > 14.701072
t_2_3 - t_2_1 - 2000.000000 u_2_1_3 > -1997.976524
t_1_1 - t_1_4 + 2000.000000 u_1_1_4 > 45.204700
t_1_4 - t_1_1 - 2000.000000 u_1_1_4 > -1989.791100
t_2_1 - t_2_4 + 2000.000000 u_2_1_4 > 8.413893
t_2_4 - t_2_1 - 2000.000000 u_2_1_4 > -1997.976524
t_1_5 - t_1_1 - 2000.000000 s_1_1 > -1986.150230
t_1_5 - t_2_1 - 2000.000000 s_2_1 > -1991.190536
t_2_5 - t_1_1 - 2000.000000 s_1_1 > -1986.150230
t_2_5 - t_2_1 - 2000.000000 s_2_1 > -1991.190536
t_1_2 - t_1_1 + 2000.000000 u_1_2_1 > 10.208900
t_1_1 - t_1_2 - 2000.000000 u_1_2_1 > -1980.446000
t_2_2 - t_2_1 + 2000.000000 u_2_2_1 > 2.023476
t_2_1 - t_2_2 - 2000.000000 u_2_2_1 > -1996.935625
t_1_2 - t_1_3 + 2000.000000 u_1_2_3 > 76.179800
t_1_3 - t_1_2 - 2000.000000 u_1_2_3 > -1980.446000
t_2_2 - t_2_3 + 2000.000000 u_2_2_3 > 14.701072
t_2_3 - t_2_2 - 2000.000000 u_2_2_3 > -1996.935625
t_1_2 - t_1_4 + 2000.000000 u_1_2_4 > 45.204700
t_1_4 - t_1_2 - 2000.000000 u_1_2_4 > -1980.446000
t_2_2 - t_2_4 + 2000.000000 u_2_2_4 > 8.413893
t_2_4 - t_2_2 - 2000.000000 u_2_2_4 > -1996.935625
t_1_5 - t_1_2 - 2000.000000 s_1_2 > -1976.805130
t_1_5 - t_2_2 - 2000.000000 s_2_2 > -1990.149637
t_2_5 - t_1_2 - 2000.000000 s_1_2 > -1976.805130
t_2_5 - t_2_2 - 2000.000000 s_2_2 > -1990.149637
t_1_3 - t_1_1 + 2000.000000 u_1_3_1 > 10.208900
t_1_1 - t_1_3 - 2000.000000 u_1_3_1 > -1923.820200
t_2_3 - t_2_1 + 2000.000000 u_2_3_1 > 2.023476
t_2_1 - t_2_3 - 2000.000000 u_2_3_1 > -1985.298928
t_1_3 - t_1_2 + 2000.000000 u_1_3_2 > 19.554000
t_1_2 - t_1_3 - 2000.000000 u_1_3_2 > -1923.820200
t_2_3 - t_2_2 + 2000.000000 u_2_3_2 > 3.064375
t_2_2 - t_2_3 - 2000.000000 u_2_3_2 > -1985.298928
t_1_3 - t_1_4 + 2000.000000 u_1_3_4 > 45.204700
t_1_4 - t_1_3 - 2000.000000 u_1_3_4 > -1923.820200
t_2_3 - t_2_4 + 2000.000000 u_2_3_4 > 8.413893
t_2_4 - t_2_3 - 2000.000000 u_2_3_4 > -1985.298928
t_1_5 - t_1_3 - 2000.000000 s_1_3 > -1920.179330
t_1_5 - t_2_3 - 2000.000000 s_2_3 > -1978.512940
t_2_5 - t_1_3 - 2000.000000 s_1_3 > -1920.179330
t_2_5 - t_2_3 - 2000.000000 s_2_3 > -1978.512940
t_1_4 - t_1_1 + 2000.000000 u_1_4_1 > 10.208900
t_1_1 - t_1_4 - 2000.000000 u_1_4_1 > -1954.795300
t_2_4 - t_2_1 + 2000.000000 u_2_4_1 > 2.023476
t_2_1 - t_2_4 - 2000.000000 u_2_4_1 > -1991.586107
t_1_4 - t_1_2 + 2000.000000 u_1_4_2 > 19.554000
t_1_2 - t_1_4 - 2000.000000 u_1_4_2 > -1954.795300
t_2_4 - t_2_2 + 2000.000000 u_2_4_2 > 3.064375
t_2_2 - t_2_4 - 2000.000000 u_2_4_2 > -1991.586107
t_1_4 - t_1_3 + 2000.000000 u_1_4_3 > 76.179800
t_1_3 - t_1_4 - 2000.000000 u_1_4_3 > -1954.795300
t_2_4 - t_2_3 + 2000.000000 u_2_4_3 > 14.701072
t_2_3 - t_2_4 - 2000.000000 u_2_4_3 > -1991.586107
t_1_5 - t_1_4 - 2000.000000 s_1_4 > -1951.154430
t_1_5 - t_2_4 - 2000.000000 s_2_4 > -1984.800119
t_2_5 - t_1_4 - 2000.000000 s_1_4 > -1951.154430
t_2_5 - t_2_4 - 2000.000000 s_2_4 > -1984.800119
t_1_5 - t_1_1 - 2000.000000 s_1_1 > -1986.150230
t_1_5 - t_2_1 - 2000.000000 s_2_1 > -1991.190536
t_2_5 - t_1_1 - 2000.000000 s_1_1 > -1986.150230
t_2_5 - t_2_1 - 2000.000000 s_2_1 > -1991.190536
t_1_5 - t_1_2 - 2000.000000 s_1_2 > -1976.805130
t_1_5 - t_2_2 - 2000.000000 s_2_2 > -1990.149637
t_2_5 - t_1_2 - 2000.000000 s_1_2 > -1976.805130
t_2_5 - t_2_2 - 2000.000000 s_2_2 > -1990.149637
t_1_5 - t_1_3 - 2000.000000 s_1_3 > -1920.179330
t_1_5 - t_2_3 - 2000.000000 s_2_3 > -1978.512940
t_2_5 - t_1_3 - 2000.000000 s_1_3 > -1920.179330
t_2_5 - t_2_3 - 2000.000000 s_2_3 > -1978.512940
t_1_5 - t_1_4 - 2000.000000 s_1_4 > -1951.154430
t_1_5 - t_2_4 - 2000.000000 s_2_4 > -1984.800119
t_2_5 - t_1_4 - 2000.000000 s_1_4 > -1951.154430
t_2_5 - t_2_4 - 2000.000000 s_2_4 > -1984.800119
Binary
s_1_1
s_2_1
s_1_2
s_2_2
s_1_3
s_2_3
s_1_4
s_2_4
s_1_5
s_2_5
u_1_1_2
u_2_1_2
u_1_1_3
u_2_1_3
u_1_1_4
u_2_1_4
u_1_2_1
u_2_2_1
u_1_2_3
u_2_2_3
u_1_2_4
u_2_2_4
u_1_3_1
u_2_3_1
u_1_3_2
u_2_3_2
u_1_3_4
u_2_3_4
u_1_4_1
u_2_4_1
u_1_4_2
u_2_4_2
u_1_4_3
u_2_4_3

End
